0 9817.84
1 9730.25
2 9624.04
3 9484.95
4 9484.95
5 9484.95
6 9438.13
7 9389.21
8 9324.97
9 9297.24
10 9254.98
11 9213.47
12 9213.47
13 9166.66
14 9141.56
15 9089.73
16 9089.73
17 9089.73
18 9089.73
19 9006.19
20 8946.60
21 8911.07
22 8911.07
23 8889.72
24 8889.72
25 8871.85
26 8871.85
27 8734.89
28 8682.61
29 8682.61
30 8682.61
31 8641.22
32 8641.22
33 8566.28
34 8566.28
35 8566.28
36 8566.28
37 8451.07
38 8451.07
39 8451.07
40 8451.07
41 8451.07
42 8451.07
43 8451.07
44 8420.69
45 8358.60
46 8293.58
47 8293.58
48 8283.45
49 8253.53
50 8253.53
51 8253.53
52 8187.65
53 8186.51
54 8186.51
55 8186.51
56 8186.51
57 8160.10
58 8092.65
59 8063.76
60 8063.76
61 8060.57
62 8057.45
63 7892.33
64 7892.33
65 7892.33
66 7892.33
67 7879.04
68 7879.04
69 7879.04
70 7879.04
71 7879.04
72 7879.04
73 7849.78
74 7849.78
75 7849.78
76 7849.78
77 7849.78
78 7849.78
79 7818.88
80 7818.88
81 7818.88
82 7818.88
83 7818.88
84 7818.88
85 7818.88
86 7759.69
87 7759.69
88 7759.69
89 7759.69
90 7759.69
91 7759.69
92 7759.69
93 7759.69
94 7740.54
95 7740.54
96 7740.54
97 7734.32
98 7734.32
99 7734.32
100 7696.53
101 7693.14
102 7597.34
103 7597.34
104 7597.34
105 7597.34
106 7493.66
107 7493.66
108 7493.66
109 7493.66
110 7493.66
111 7493.66
112 7493.66
113 7493.66
114 7461.46
115 7461.46
116 7461.46
117 7461.46
118 7461.46
119 7461.46
120 7461.46
121 7461.46
122 7461.46
123 7461.46
124 7461.46
125 7461.46
126 7461.46
127 7461.46
128 7422.83
129 7422.83
130 7415.74
131 7410.38
132 7410.38
133 7410.38
134 7410.38
135 7410.38
136 7410.38
137 7410.38
138 7410.38
139 7399.08
140 7364.96
141 7364.96
142 7364.96
143 7364.96
144 7364.96
145 7364.96
146 7364.96
147 7364.96
148 7364.96
149 7364.96
150 7364.96
151 7364.96
152 7346.27
153 7346.27
154 7346.27
155 7346.27
156 7346.27
157 7346.27
158 7346.27
159 7346.27
160 7346.27
161 7346.27
162 7250.36
163 7250.36
164 7250.36
165 7250.36
166 7250.36
167 7250.36
168 7250.36
169 7250.36
170 7250.36
171 7250.36
172 7250.36
173 7250.36
174 7250.36
175 7250.36
176 7250.36
177 7250.36
178 7230.51
179 7230.51
180 7230.51
181 7230.51
182 7230.51
183 7230.51
184 7230.51
185 7230.51
186 7230.51
187 7192.93
188 7192.93
189 7192.93
190 7192.93
191 7192.93
192 7175.16
193 7113.79
194 7113.79
195 7113.79
196 7113.79
197 7113.79
198 7113.79
199 7113.79
200 7113.79
201 7113.79
202 7113.79
203 7113.79
204 7113.79
205 7113.79
206 7113.79
207 7113.79
208 7113.79
209 7113.79
210 7113.79
211 7113.79
212 7113.79
213 7113.79
214 7113.79
215 7113.79
216 7113.79
217 7113.79
218 7113.79
219 7042.28
220 7042.28
221 7042.28
222 7042.28
223 7042.28
224 7042.28
225 7003.58
226 7003.58
227 7003.58
228 7003.58
229 7003.58
230 7003.58
231 7003.58
232 7003.58
233 7003.58
234 7003.58
235 7003.58
236 6966.57
237 6966.57
238 6966.57
239 6966.57
240 6966.57
241 6966.57
242 6933.58
243 6933.58
244 6933.58
245 6933.58
246 6933.58
247 6933.58
248 6933.58
249 6933.58
250 6933.58
251 6847.19
252 6847.19
253 6822.55
254 6822.55
255 6822.55
256 6822.55
257 6822.55
258 6822.55
259 6822.55
260 6822.55
261 6822.55
262 6822.55
263 6822.55
264 6773.16
265 6773.16
266 6773.16
267 6773.16
268 6773.16
269 6773.16
270 6772.73
271 6772.73
272 6772.73
273 6772.73
274 6772.73
275 6772.73
276 6761.29
277 6761.29
278 6761.29
279 6761.29
280 6761.29
281 6761.29
282 6761.29
283 6761.29
284 6761.29
285 6761.29
286 6761.29
287 6711.61
288 6711.61
289 6711.61
290 6711.61
291 6711.61
292 6711.61
293 6663.81
294 6663.81
295 6663.81
296 6663.81
297 6663.81
298 6663.81
299 6663.81
300 6663.81
301 6624.02
302 6624.02
303 6624.02
304 6575.52
305 6575.52
306 6575.52
307 6575.52
308 6575.52
309 6575.52
310 6575.52
311 6569.13
312 6569.13
313 6551.46
314 6551.46
315 6551.46
316 6551.46
317 6551.46
318 6551.46
319 6551.46
320 6551.46
321 6551.46
322 6551.46
323 6551.46
324 6551.46
325 6551.46
326 6551.46
327 6496.20
328 6496.20
329 6496.20
330 6496.20
331 6496.20
332 6496.20
333 6496.20
334 6496.20
335 6473.07
336 6467.62
337 6467.62
338 6467.62
339 6467.62
340 6467.62
341 6467.62
342 6467.62
343 6467.62
344 6467.62
345 6467.62
346 6467.62
347 6467.62
348 6467.62
349 6467.62
350 6467.62
351 6467.62
352 6467.62
353 6467.62
354 6467.62
355 6467.62
356 6467.62
357 6467.62
358 6467.62
359 6467.62
360 6411.12
361 6411.12
362 6411.12
363 6411.12
364 6411.12
365 6411.12
366 6411.12
367 6411.12
368 6411.12
369 6411.12
370 6411.12
371 6411.12
372 6411.12
373 6411.12
374 6411.12
375 6411.12
376 6411.12
377 6411.12
378 6411.12
379 6411.12
380 6411.12
381 6411.12
382 6399.14
383 6399.14
384 6399.14
385 6399.14
386 6399.14
387 6391.22
388 6391.22
389 6391.22
390 6391.22
391 6391.22
392 6391.22
393 6391.22
394 6391.22
395 6391.22
396 6391.22
397 6391.22
398 6391.22
399 6391.22
400 6391.22
401 6391.22
402 6391.22
403 6391.22
404 6391.22
405 6391.22
406 6391.22
407 6391.22
408 6391.22
409 6391.22
410 6391.22
411 6391.22
412 6391.22
413 6391.22
414 6391.22
415 6391.22
416 6391.22
417 6391.22
418 6391.22
419 6391.22
420 6391.22
421 6391.22
422 6391.22
423 6391.22
424 6391.22
425 6391.22
426 6391.22
427 6391.22
428 6391.22
429 6391.22
430 6391.22
431 6391.22
432 6391.22
433 6391.22
434 6391.22
435 6391.22
436 6391.22
437 6391.22
438 6391.22
439 6384.13
440 6384.13
441 6384.13
442 6384.13
443 6384.13
444 6384.13
445 6384.13
446 6384.13
447 6384.13
448 6384.13
449 6384.13
450 6384.13
451 6384.13
452 6384.13
453 6384.13
454 6384.13
455 6384.13
456 6384.13
457 6384.13
458 6344.87
459 6344.87
460 6344.87
461 6344.87
462 6344.87
463 6344.87
464 6344.87
465 6344.87
466 6344.87
467 6344.87
468 6344.87
469 6344.87
470 6344.87
471 6344.87
472 6344.87
473 6344.87
474 6344.87
475 6344.87
476 6344.87
477 6344.87
478 6344.87
479 6344.87
480 6344.87
481 6344.87
482 6344.87
483 6344.87
484 6344.87
485 6344.87
486 6344.87
487 6344.87
488 6344.87
489 6344.87
490 6344.87
491 6344.87
492 6344.87
493 6344.87
494 6344.87
495 6344.87
496 6344.87
497 6344.87
498 6344.87
499 6344.87
500 6344.87
501 6344.87
502 6344.87
503 6344.87
504 6344.87
505 6344.87
506 6344.87
507 6344.87
508 6344.80
509 6344.80
510 6344.80
511 6344.80
512 6344.80
513 6344.80
514 6344.80
515 6344.80
516 6344.80
517 6344.80
518 6344.80
519 6344.80
520 6344.80
521 6344.80
522 6344.80
523 6344.80
524 6344.80
525 6344.80
526 6344.80
527 6344.80
528 6344.80
529 6344.80
530 6344.80
531 6344.80
532 6344.80
533 6344.80
534 6344.80
535 6344.80
536 6344.80
537 6315.08
538 6315.08
539 6313.84
540 6313.84
541 6313.84
542 6313.84
543 6313.84
544 6313.84
545 6313.84
546 6313.84
547 6313.84
548 6313.84
549 6313.84
550 6313.84
551 6313.84
552 6313.84
553 6313.62
554 6313.62
555 6313.62
556 6306.33
557 6306.33
558 6306.33
559 6306.33
560 6306.33
561 6306.33
562 6306.33
563 6306.33
564 6306.33
565 6306.33
566 6306.33
567 6306.33
568 6306.33
569 6306.33
570 6306.33
571 6306.33
572 6306.33
573 6306.33
574 6306.33
575 6306.33
576 6306.33
577 6306.33
578 6306.33
579 6306.33
580 6306.33
581 6306.33
582 6306.33
583 6306.33
584 6306.33
585 6306.33
586 6293.59
587 6293.59
588 6293.59
589 6293.59
590 6293.59
591 6293.59
592 6293.59
593 6293.59
594 6293.59
595 6293.59
596 6293.59
597 6293.59
598 6293.59
599 6293.59
600 6293.59
601 6293.59
602 6293.59
603 6293.59
604 6293.59
605 6293.59
606 6293.59
607 6293.59
608 6293.59
609 6293.59
610 6293.59
611 6293.59
612 6293.59
613 6293.59
614 6293.59
615 6293.59
616 6293.59
617 6293.59
618 6293.59
619 6293.59
620 6293.59
621 6293.59
622 6293.59
623 6293.59
624 6293.59
625 6293.59
626 6293.59
627 6293.59
628 6293.59
629 6293.59
630 6293.59
631 6293.59
632 6293.59
633 6293.59
634 6293.59
635 6293.59
636 6293.59
637 6293.59
638 6293.59
639 6293.59
640 6293.59
641 6293.59
642 6293.59
643 6293.59
644 6293.59
645 6293.59
646 6293.59
647 6293.59
648 6293.59
649 6293.59
650 6293.59
651 6293.59
652 6293.59
653 6293.59
654 6293.59
655 6293.59
656 6293.59
657 6293.59
658 6293.59
659 6293.59
660 6293.59
661 6293.59
662 6293.59
663 6293.59
664 6293.59
665 6293.59
666 6293.59
667 6293.59
668 6293.59
669 6293.59
670 6293.59
671 6293.59
672 6293.59
673 6293.59
674 6293.59
675 6293.59
676 6293.59
677 6293.59
678 6293.59
679 6293.59
680 6293.59
681 6293.59
682 6293.59
683 6286.30
684 6277.34
685 6277.34
686 6277.34
687 6277.34
688 5338.08
689 5338.08
690 5338.08
691 5338.08
692 5338.08
693 5338.08
694 5338.08
695 5338.08
696 5338.08
697 5338.08
698 5338.08
699 5338.08
700 5338.08
701 5338.08
702 5338.08
703 5338.08
704 5338.08
705 5338.08
706 5338.08
707 5338.08
708 5338.08
709 5338.08
710 5338.08
711 5338.08
712 5338.08
713 5338.08
714 5338.08
715 5338.08
716 5338.08
717 5338.08
718 5338.08
719 5338.08
720 5338.08
721 5338.08
722 5338.08
723 5338.08
724 5338.08
725 5338.08
726 5338.08
727 5338.08
728 5338.08
729 5338.08
730 5338.08
731 5338.08
732 5338.08
733 5338.08
734 5338.08
735 5338.08
736 5338.08
737 5338.08
738 5338.08
739 5338.08
740 5338.08
741 5338.08
742 5338.08
743 5338.08
744 5338.08
745 5338.08
746 5338.08
747 5338.08
748 5338.08
749 5338.08
750 5338.08
751 5338.08
752 5338.08
753 5338.08
754 5338.08
755 5338.08
756 5338.08
757 5338.08
758 5338.08
759 5338.08
760 5338.08
761 5338.08
762 5338.08
763 5338.08
764 5338.08
765 5338.08
766 5338.08
767 5338.08
768 5338.08
769 5338.08
770 5338.08
771 5338.08
772 5338.08
773 5338.08
774 5338.08
775 5338.08
776 5338.08
777 5338.08
778 5338.08
779 5338.08
780 5338.08
781 5338.08
782 5338.08
783 5338.08
784 5338.08
785 5338.08
786 5338.08
787 5338.08
788 5338.08
789 5338.08
790 5338.08
791 5338.08
792 5338.08
793 5338.08
794 5338.08
795 5338.08
796 5338.08
797 5338.08
798 5338.08
799 5338.08
800 5338.08
801 5338.08
802 5338.08
803 5338.08
804 5338.08
805 5338.08
806 5338.08
807 5338.08
808 5338.08
809 5338.08
810 5338.08
811 5338.08
812 5338.08
813 5338.08
814 5338.08
815 5338.08
816 5338.08
817 5338.08
818 5338.08
819 5338.08
820 5338.08
821 5338.08
822 5338.08
823 5338.08
824 5338.08
825 5338.08
826 5338.08
827 5338.08
828 5338.08
829 5338.08
830 5338.08
831 5338.08
832 5338.08
833 5338.08
834 5338.08
835 5338.08
836 5338.08
837 5338.08
838 5338.08
839 5338.08
840 5338.08
841 5338.08
842 5338.08
843 5338.08
844 5338.08
845 5338.08
846 5338.08
847 5338.08
848 5338.08
849 5338.08
850 5338.08
851 5338.08
852 5338.08
853 5338.08
854 5338.08
855 5338.08
856 5338.08
857 5338.08
858 5338.08
859 5338.08
860 5338.08
861 5338.08
862 5338.08
863 5338.08
864 5338.08
865 5338.08
866 5338.08
867 5338.08
868 5338.08
869 5338.08
870 5338.08
871 5338.08
872 5338.08
873 5338.08
874 5338.08
875 5338.08
876 5338.08
877 5338.08
878 5338.08
879 5338.08
880 5338.08
881 5338.08
882 5338.08
883 5338.08
884 5338.08
885 5338.08
886 5338.08
887 5338.08
888 5338.08
889 5338.08
890 5338.08
891 5338.08
892 5338.08
893 5338.08
894 5338.08
895 5338.08
896 5338.08
897 5338.08
898 5338.08
899 5338.08
900 5338.08
901 5338.08
902 5338.08
903 5338.08
904 5338.08
905 5338.08
906 5338.08
907 5338.08
908 5338.08
909 5338.08
910 5338.08
911 5338.08
912 5338.08
913 5338.08
914 5338.08
915 5338.08
916 5338.08
917 5338.08
918 5338.08
919 5338.08
920 5338.08
921 5338.08
922 5338.08
923 5338.08
924 5338.08
925 5338.08
926 5338.08
927 5338.08
928 5338.08
929 5338.08
930 5338.08
931 5338.08
932 5338.08
933 5338.08
934 5338.08
935 5338.08
936 5338.08
937 5338.08
938 5338.08
939 5338.08
940 5338.08
941 5338.08
942 5338.08
943 5338.08
944 5338.08
945 5338.08
946 5338.08
947 5338.08
948 5338.08
949 5338.08
950 5338.08
951 5338.08
952 5338.08
953 5338.08
954 5338.08
955 5338.08
956 5338.08
957 5338.08
958 5338.08
959 5338.08
960 5338.08
961 5338.08
962 5338.08
963 5338.08
964 5338.08
965 5338.08
966 5338.08
967 5338.08
968 5338.08
969 5338.08
970 5338.08
971 5338.08
972 5338.08
973 5338.08
974 5338.08
975 5338.08
976 5338.08
977 5338.08
978 5338.08
979 5338.08
980 5338.08
981 5338.08
982 5338.08
983 5338.08
984 5338.08
985 5338.08
986 5338.08
987 5338.08
988 5338.08
989 5338.08
990 5338.08
991 5338.08
992 5338.08
993 5338.08
994 5338.08
995 5338.08
996 5338.08
997 5338.08
998 5338.08
999 5338.08
12 8 7 1 0 0 